; benchmark generated from python API
(set-info :status unknown)
(declare-fun DISJ_W_S2_R_S1 () Bool)
(declare-fun DISJ_W_S1_R_S2 () Bool)
(declare-fun W_S1_V4 () Bool)
(declare-fun W_S1_V5 () Bool)
(declare-fun R_S1_V4 () Bool)
(declare-fun R_S1_V5 () Bool)
(declare-fun W_S2_V5 () Bool)
(declare-fun DISJ_W_S2_R_S2 () Bool)
(declare-fun R_E1_V4 () Bool)
(declare-fun R_E1_V5 () Bool)
(declare-fun W_S2_V2 () Bool)
(declare-fun W_S2_V3 () Bool)
(declare-fun W_S2_V1 () Bool)
(declare-fun R_S2_V4 () Bool)
(declare-fun R_S2_V5 () Bool)
(declare-fun R_S2_V2 () Bool)
(declare-fun R_S2_V3 () Bool)
(declare-fun R_S2_V1 () Bool)
(declare-fun R_S1_V2 () Bool)
(declare-fun R_S1_V3 () Bool)
(declare-fun R_S1_V1 () Bool)
(declare-fun R_E1_V2 () Bool)
(declare-fun DISJ_W_S2_R_E1 () Bool)
(declare-fun DISJ_W_S1_W_S2 () Bool)
(declare-fun R_E1_V3 () Bool)
(declare-fun DISJ_W_S1_R_S1 () Bool)
(declare-fun W_S2_V4 () Bool)
(declare-fun W_S1_V3 () Bool)
(declare-fun W_S1_V2 () Bool)
(declare-fun W_S1_V1 () Bool)
(declare-fun R_E1_V1 () Bool)
(declare-fun DISJ_W_S1_R_E1 () Bool)
(assert
 (let (($x3704 (and DISJ_W_S1_R_S2 DISJ_W_S2_R_S1)))
 (let (($x3265 (not $x3704)))
 (let (($x5060 (not W_S1_V4)))
 (let (($x2108 (not W_S1_V5)))
 (let (($x844 (not R_S1_V4)))
 (let (($x744 (not R_S1_V5)))
 (let (($x2056 (not (and $x744 $x844 $x2108 $x5060 DISJ_W_S1_R_S2))))
 (let (($x2346 (not (and $x844 $x2108 $x5060 (not W_S2_V5) DISJ_W_S1_R_S2))))
 (let (($x258 (and DISJ_W_S2_R_S1 DISJ_W_S2_R_S2)))
 (let (($x3441 (not $x258)))
 (let (($x2750 (not (and W_S1_V4 R_E1_V4))))
 (let (($x1887 (not (and W_S1_V5 R_E1_V5))))
 (let (($x630 (forall ((V3_0 Int) )(forall ((V2_0 Int) )(forall ((V5_0 Int) )(forall ((V4_0 Int) )(forall ((MW_S1_V1 Bool) )(forall ((MW_S1_V3 Bool) )(forall ((MW_S1_V2 Bool) )(forall ((MW_S1_V5 Bool) )(forall ((MW_S1_V4 Bool) )(forall ((MW_S2_V1 Bool) )(forall ((MW_S2_V3 Bool) )(forall ((MW_S2_V2 Bool) )(forall ((MW_S2_V5 Bool) )(forall ((MW_S2_V4 Bool) )(forall ((S1_V1_!6442 Int) )(forall ((S1_V1_!6447 Int) )(forall ((S1_V1_!6464 Int) )(forall ((S1_V1_!6474 Int) )(forall ((S2_V5_!6456 Int) )(forall ((S2_V5_!6461 Int) )(forall ((S2_V5_!6472 Int) )(forall ((S2_V5_!6482 Int) )(forall ((S1_V3_!6443 Int) )(forall ((S1_V3_!6448 Int) )(forall ((S1_V3_!6465 Int) )(forall ((S1_V3_!6475 Int) )(forall ((S1_V2_!6444 Int) )(forall ((S1_V2_!6449 Int) )(forall ((S1_V2_!6466 Int) )(forall ((S1_V2_!6476 Int) )(forall ((E1_!6441 Int) )(forall ((E1_!6452 Int) )(forall ((E1_!6463 Int) )(forall ((S2_V4_!6457 Int) )(forall ((S2_V4_!6462 Int) )(forall ((S2_V4_!6473 Int) )(forall ((S2_V4_!6483 Int) )(forall ((S1_V5_!6445 Int) )(forall ((S1_V5_!6450 Int) )(forall ((S1_V5_!6467 Int) )(forall ((S1_V5_!6477 Int) )(forall ((S2_V1_!6453 Int) )(forall ((S2_V1_!6458 Int) )(forall ((S2_V1_!6469 Int) )(forall ((S2_V1_!6479 Int) )(forall ((S1_V4_!6446 Int) )(forall ((S1_V4_!6451 Int) )(forall ((S1_V4_!6468 Int) )(forall ((S1_V4_!6478 Int) )(forall ((S2_V2_!6455 Int) )(forall ((S2_V2_!6460 Int) )(forall ((S2_V2_!6471 Int) )(forall ((S2_V2_!6481 Int) )(forall ((S2_V3_!6454 Int) )(forall ((S2_V3_!6459 Int) )(forall ((S2_V3_!6470 Int) )(forall ((S2_V3_!6480 Int) )(let (($x2984 (= (ite MW_S2_V4 S2_V4_!6462 (ite MW_S1_V4 S1_V4_!6451 V4_0)) (ite MW_S2_V4 S2_V4_!6483 (ite MW_S1_V4 S1_V4_!6478 (ite MW_S2_V4 S2_V4_!6473 (ite MW_S1_V4 S1_V4_!6468 V4_0)))))))
 (let (($x3474 (= (ite MW_S2_V5 S2_V5_!6461 (ite MW_S1_V5 S1_V5_!6450 V5_0)) (ite MW_S2_V5 S2_V5_!6482 (ite MW_S1_V5 S1_V5_!6477 (ite MW_S2_V5 S2_V5_!6472 (ite MW_S1_V5 S1_V5_!6467 V5_0)))))))
 (let ((?x4647 (ite MW_S1_V2 S1_V2_!6466 V2_0)))
 (let ((?x1257 (ite MW_S2_V2 S2_V2_!6471 ?x4647)))
 (let ((?x886 (ite MW_S1_V2 S1_V2_!6476 ?x1257)))
 (let ((?x1970 (ite MW_S2_V2 S2_V2_!6481 ?x886)))
 (let ((?x320 (ite MW_S1_V2 S1_V2_!6449 V2_0)))
 (let ((?x902 (ite MW_S2_V2 S2_V2_!6460 ?x320)))
 (let (($x982 (= (ite MW_S2_V3 S2_V3_!6459 (ite MW_S1_V3 S1_V3_!6448 V3_0)) (ite MW_S2_V3 S2_V3_!6480 (ite MW_S1_V3 S1_V3_!6475 (ite MW_S2_V3 S2_V3_!6470 (ite MW_S1_V3 S1_V3_!6465 V3_0)))))))
 (let ((?x3393 (ite MW_S1_V1 S1_V1_!6464 E1_!6463)))
 (let ((?x1021 (ite MW_S2_V1 S2_V1_!6469 ?x3393)))
 (let ((?x1136 (+ 1 ?x1021)))
 (let ((?x5199 (ite MW_S1_V1 S1_V1_!6474 ?x1136)))
 (let ((?x5310 (ite MW_S2_V1 S2_V1_!6479 ?x5199)))
 (let ((?x1654 (ite MW_S2_V1 S2_V1_!6453 E1_!6452)))
 (let ((?x2950 (+ 1 ?x1654)))
 (let ((?x355 (ite MW_S2_V1 S2_V1_!6458 ?x2950)))
 (let (($x2444 (>= (ite MW_S1_V1 S1_V1_!6447 (+ 1 (ite MW_S1_V1 S1_V1_!6442 E1_!6441))) (+ (- 1) ?x320))))
 (let (($x1480 (and (not (<= V2_0 E1_!6441)) (not (<= (ite MW_S1_V2 S1_V2_!6444 V2_0) (+ 1 (ite MW_S1_V1 S1_V1_!6442 E1_!6441)))) $x2444 (not (<= ?x320 E1_!6452)) (not (<= (ite MW_S2_V2 S2_V2_!6455 ?x320) ?x2950)) (>= ?x355 (+ (- 1) ?x902)) (not (<= V2_0 E1_!6463)) (not (<= ?x1257 ?x1136)) (>= ?x5310 (+ (- 1) ?x1970)))))
 (let (($x929 (= S2_V3_!6470 S2_V3_!6480)))
 (let ((?x2486 (ite MW_S1_V4 S1_V4_!6468 V4_0)))
 (let ((?x1334 (ite MW_S2_V4 S2_V4_!6473 ?x2486)))
 (let ((?x5905 (ite MW_S1_V4 S1_V4_!6478 ?x1334)))
 (let (($x5785 (not R_S2_V4)))
 (let ((?x3246 (ite MW_S1_V5 S1_V5_!6467 V5_0)))
 (let ((?x2645 (ite MW_S2_V5 S2_V5_!6472 ?x3246)))
 (let ((?x2308 (ite MW_S1_V5 S1_V5_!6477 ?x2645)))
 (let (($x5098 (not R_S2_V5)))
 (let ((?x2853 (ite MW_S1_V3 S1_V3_!6465 V3_0)))
 (let ((?x2423 (ite MW_S2_V3 S2_V3_!6470 ?x2853)))
 (let ((?x2095 (ite MW_S1_V3 S1_V3_!6475 ?x2423)))
 (let (($x3861 (not R_S2_V3)))
 (let (($x3411 (and (or (not R_S2_V1) (= ?x3393 ?x5199)) (or $x3861 (= ?x2853 ?x2095)) (or (not R_S2_V2) (= ?x4647 ?x886)) (or $x5098 (= ?x3246 ?x2308)) (or $x5785 (= ?x2486 ?x5905)))))
 (let (($x2185 (not $x3411)))
 (let (($x3251 (= S2_V3_!6470 S2_V3_!6454)))
 (let (($x2085 (and (or (not R_S2_V1) (= ?x3393 E1_!6452)) (or $x3861 (= ?x2853 (ite MW_S1_V3 S1_V3_!6448 V3_0))) (or (not R_S2_V2) (= ?x4647 ?x320)) (or $x5098 (= ?x3246 (ite MW_S1_V5 S1_V5_!6450 V5_0))) (or $x5785 (= ?x2486 (ite MW_S1_V4 S1_V4_!6451 V4_0))))))
 (let (($x3849 (not $x2085)))
 (let (($x470 (= S2_V3_!6459 S2_V3_!6480)))
 (let (($x2090 (and (or (not R_S2_V1) (= ?x1654 (+ (- 1) ?x5199))) (or $x3861 (= (ite MW_S2_V3 S2_V3_!6454 (ite MW_S1_V3 S1_V3_!6448 V3_0)) ?x2095)) (or (not R_S2_V2) (= (ite MW_S2_V2 S2_V2_!6455 ?x320) ?x886)) (or $x5098 (= (ite MW_S2_V5 S2_V5_!6456 (ite MW_S1_V5 S1_V5_!6450 V5_0)) ?x2308)) (or $x5785 (= (ite MW_S2_V4 S2_V4_!6457 (ite MW_S1_V4 S1_V4_!6451 V4_0)) ?x5905)))))
 (let (($x291 (not $x2090)))
 (let (($x2042 (= S2_V3_!6459 S2_V3_!6470)))
 (let (($x5135 (and (or (not R_S2_V1) (= ?x1654 (+ (- 1) ?x3393))) (or $x3861 (= (ite MW_S2_V3 S2_V3_!6454 (ite MW_S1_V3 S1_V3_!6448 V3_0)) ?x2853)) (or (not R_S2_V2) (= (ite MW_S2_V2 S2_V2_!6455 ?x320) ?x4647)) (or $x5098 (= (ite MW_S2_V5 S2_V5_!6456 (ite MW_S1_V5 S1_V5_!6450 V5_0)) ?x3246)) (or $x5785 (= (ite MW_S2_V4 S2_V4_!6457 (ite MW_S1_V4 S1_V4_!6451 V4_0)) ?x2486)))))
 (let (($x3566 (not $x5135)))
 (let (($x4897 (= S2_V3_!6459 S2_V3_!6454)))
 (let (($x1657 (or $x5785 (= (ite MW_S2_V4 S2_V4_!6457 (ite MW_S1_V4 S1_V4_!6451 V4_0)) (ite MW_S1_V4 S1_V4_!6451 V4_0)))))
 (let (($x1917 (or $x5098 (= (ite MW_S2_V5 S2_V5_!6456 (ite MW_S1_V5 S1_V5_!6450 V5_0)) (ite MW_S1_V5 S1_V5_!6450 V5_0)))))
 (let (($x4321 (or $x3861 (= (ite MW_S2_V3 S2_V3_!6454 (ite MW_S1_V3 S1_V3_!6448 V3_0)) (ite MW_S1_V3 S1_V3_!6448 V3_0)))))
 (let (($x5245 (and (or (not R_S2_V1) (= ?x1654 (+ (- 1) E1_!6452))) $x4321 (or (not R_S2_V2) (= (ite MW_S2_V2 S2_V2_!6455 ?x320) ?x320)) $x1917 $x1657)))
 (let (($x5828 (not $x5245)))
 (let (($x957 (= S2_V3_!6454 S2_V3_!6480)))
 (let (($x441 (and (or (not R_S2_V1) (= E1_!6452 ?x5199)) (or $x3861 (= (ite MW_S1_V3 S1_V3_!6448 V3_0) ?x2095)) (or (not R_S2_V2) (= ?x320 ?x886)) (or $x5098 (= (ite MW_S1_V5 S1_V5_!6450 V5_0) ?x2308)) (or $x5785 (= (ite MW_S1_V4 S1_V4_!6451 V4_0) ?x5905)))))
 (let (($x1159 (not $x441)))
 (let (($x4628 (= S2_V2_!6481 S2_V2_!6460)))
 (let (($x315 (and (or (not R_S2_V1) (= ?x5199 ?x2950)) (or $x3861 (= ?x2095 (ite MW_S2_V3 S2_V3_!6454 (ite MW_S1_V3 S1_V3_!6448 V3_0)))) (or (not R_S2_V2) (= ?x886 (ite MW_S2_V2 S2_V2_!6455 ?x320))) (or $x5098 (= ?x2308 (ite MW_S2_V5 S2_V5_!6456 (ite MW_S1_V5 S1_V5_!6450 V5_0)))) (or $x5785 (= ?x5905 (ite MW_S2_V4 S2_V4_!6457 (ite MW_S1_V4 S1_V4_!6451 V4_0)))))))
 (let (($x1777 (= S2_V2_!6481 S2_V2_!6455)))
 (let (($x2537 (and (or (not R_S2_V1) (= ?x5199 E1_!6452)) (or $x3861 (= ?x2095 (ite MW_S1_V3 S1_V3_!6448 V3_0))) (or (not R_S2_V2) (= ?x886 ?x320)) (or $x5098 (= ?x2308 (ite MW_S1_V5 S1_V5_!6450 V5_0))) (or $x5785 (= ?x5905 (ite MW_S1_V4 S1_V4_!6451 V4_0))))))
 (let (($x2367 (not $x2537)))
 (let (($x7 (= S2_V2_!6471 S2_V2_!6460)))
 (let (($x841 (and (or (not R_S2_V1) (= ?x3393 ?x2950)) (or $x3861 (= ?x2853 (ite MW_S2_V3 S2_V3_!6454 (ite MW_S1_V3 S1_V3_!6448 V3_0)))) (or (not R_S2_V2) (= ?x4647 (ite MW_S2_V2 S2_V2_!6455 ?x320))) (or $x5098 (= ?x3246 (ite MW_S2_V5 S2_V5_!6456 (ite MW_S1_V5 S1_V5_!6450 V5_0)))) (or $x5785 (= ?x2486 (ite MW_S2_V4 S2_V4_!6457 (ite MW_S1_V4 S1_V4_!6451 V4_0)))))))
 (let (($x4698 (and (or (not R_S1_V1) (= ?x1021 (ite MW_S1_V1 S1_V1_!6442 E1_!6441))) (or (not R_S1_V3) (= ?x2423 (ite MW_S1_V3 S1_V3_!6443 V3_0))) (or (not R_S1_V2) (= ?x1257 (ite MW_S1_V2 S1_V2_!6444 V2_0))) (or (not R_S1_V5) (= ?x2645 (ite MW_S1_V5 S1_V5_!6445 V5_0))) (or (not R_S1_V4) (= ?x1334 (ite MW_S1_V4 S1_V4_!6446 V4_0))))))
 (let (($x152 (not $x4698)))
 (let (($x844 (not R_S1_V4)))
 (let (($x3294 (or $x844 (= V4_0 ?x1334))))
 (let (($x744 (not R_S1_V5)))
 (let (($x955 (or $x744 (= V5_0 ?x2645))))
 (let (($x267 (not R_S1_V2)))
 (let (($x5744 (or $x267 (= V2_0 ?x1257))))
 (let (($x2432 (not R_S1_V3)))
 (let (($x2373 (or $x2432 (= V3_0 ?x2423))))
 (let (($x2893 (not (and (or (not R_S1_V1) (= E1_!6463 ?x1136)) $x2373 $x5744 $x955 $x3294))))
 (let (($x3095 (or $x844 (= V4_0 (ite MW_S1_V4 S1_V4_!6446 V4_0)))))
 (let (($x5040 (or $x744 (= V5_0 (ite MW_S1_V5 S1_V5_!6445 V5_0)))))
 (let (($x2299 (or $x267 (= V2_0 (ite MW_S1_V2 S1_V2_!6444 V2_0)))))
 (let (($x3552 (or $x2432 (= V3_0 (ite MW_S1_V3 S1_V3_!6443 V3_0)))))
 (let (($x687 (and (or (not R_S1_V1) (= E1_!6463 (+ 1 (ite MW_S1_V1 S1_V1_!6442 E1_!6441)))) $x3552 $x2299 $x5040 $x3095)))
 (let (($x1564 (not $x687)))
 (let (($x3201 (not (and (or (not R_S1_V1) (= E1_!6441 ?x1136)) $x2373 $x5744 $x955 $x3294))))
 (let (($x1281 (and (or (not R_S1_V1) (= E1_!6441 (+ 1 (ite MW_S1_V1 S1_V1_!6442 E1_!6441)))) $x3552 $x2299 $x5040 $x3095)))
 (let (($x114 (not $x1281)))
 (let (($x3464 (or $x844 (= ?x1334 V4_0))))
 (let (($x6016 (or $x744 (= ?x2645 V5_0))))
 (let (($x2048 (or $x267 (= ?x1257 V2_0))))
 (let (($x3583 (or $x2432 (= ?x2423 V3_0))))
 (let (($x2552 (and (or (not R_S1_V1) (= ?x1021 (+ (- 1) E1_!6463))) $x3583 $x2048 $x6016 $x3464)))
 (let (($x1766 (not $x2552)))
 (let (($x31 (and (or (not R_S1_V1) (= ?x1021 (+ (- 1) E1_!6441))) $x3583 $x2048 $x6016 $x3464)))
 (let (($x5291 (not $x31)))
 (let (($x2320 (= S2_V4_!6483 S2_V4_!6473)))
 (let (($x454 (and (or (not R_S2_V1) (= ?x5199 ?x3393)) (or $x3861 (= ?x2095 ?x2853)) (or (not R_S2_V2) (= ?x886 ?x4647)) (or $x5098 (= ?x2308 ?x3246)) (or $x5785 (= ?x5905 ?x2486)))))
 (let (($x1110 (= E1_!6452 E1_!6463)))
 (let (($x3484 (and (or (not R_E1_V2) (= ?x320 V2_0)) (or (not R_E1_V5) (= (ite MW_S1_V5 S1_V5_!6450 V5_0) V5_0)) (or (not R_E1_V4) (= (ite MW_S1_V4 S1_V4_!6451 V4_0) V4_0)))))
 (let (($x1105 (= E1_!6441 E1_!6463)))
 (let (($x2097 (and (or (not R_E1_V2) (= V2_0 ?x320)) (or (not R_E1_V5) (= V5_0 (ite MW_S1_V5 S1_V5_!6450 V5_0))) (or (not R_E1_V4) (= V4_0 (ite MW_S1_V4 S1_V4_!6451 V4_0))))))
 (let (($x3313 (= S1_V2_!6449 S1_V2_!6476)))
 (let (($x3787 (and (or (not R_S1_V1) (= (ite MW_S1_V1 S1_V1_!6442 E1_!6441) ?x1021)) (or $x2432 (= (ite MW_S1_V3 S1_V3_!6443 V3_0) ?x2423)) (or $x267 (= (ite MW_S1_V2 S1_V2_!6444 V2_0) ?x1257)) (or $x744 (= (ite MW_S1_V5 S1_V5_!6445 V5_0) ?x2645)) (or $x844 (= (ite MW_S1_V4 S1_V4_!6446 V4_0) ?x1334)))))
 (let (($x2365 (not $x3787)))
 (let (($x5443 (or $x844 (= (ite MW_S1_V4 S1_V4_!6446 V4_0) V4_0))))
 (let (($x542 (or $x744 (= (ite MW_S1_V5 S1_V5_!6445 V5_0) V5_0))))
 (let (($x3289 (or $x267 (= (ite MW_S1_V2 S1_V2_!6444 V2_0) V2_0))))
 (let (($x387 (or $x2432 (= (ite MW_S1_V3 S1_V3_!6443 V3_0) V3_0))))
 (let (($x5957 (and (or (not R_S1_V1) (= (ite MW_S1_V1 S1_V1_!6442 E1_!6441) (+ (- 1) E1_!6463))) $x387 $x3289 $x542 $x5443)))
 (let (($x1221 (not $x5957)))
 (let (($x3431 (and (or (not R_S1_V1) (= (ite MW_S1_V1 S1_V1_!6442 E1_!6441) (+ (- 1) E1_!6441))) $x387 $x3289 $x542 $x5443)))
 (let (($x1605 (not $x3431)))
 (let (($x5047 (and (or (not R_S2_V1) (= E1_!6452 ?x3393)) (or $x3861 (= (ite MW_S1_V3 S1_V3_!6448 V3_0) ?x2853)) (or (not R_S2_V2) (= ?x320 ?x4647)) (or $x5098 (= (ite MW_S1_V5 S1_V5_!6450 V5_0) ?x3246)) (or $x5785 (= (ite MW_S1_V4 S1_V4_!6451 V4_0) ?x2486)))))
 (let (($x821 (and (or (not (or (not R_S1_V1) $x1105)) (= S1_V1_!6442 S1_V1_!6464)) (or $x1605 (= S1_V1_!6447 S1_V1_!6442)) (or $x1221 (= S1_V1_!6447 S1_V1_!6464)) (or $x5291 (= S1_V1_!6474 S1_V1_!6442)) (or $x152 (= S1_V1_!6474 S1_V1_!6447)) (or $x1766 (= S1_V1_!6474 S1_V1_!6464)) (or (not $x5047) (= S2_V5_!6456 S2_V5_!6472)) (or $x1159 (= S2_V5_!6456 S2_V5_!6482)) (or $x5828 (= S2_V5_!6461 S2_V5_!6456)) (or $x3566 (= S2_V5_!6461 S2_V5_!6472)) (or $x291 (= S2_V5_!6461 S2_V5_!6482)) (or $x2185 (= S2_V5_!6472 S2_V5_!6482)) (or (not (or (not R_S1_V1) $x1105)) (= S1_V3_!6443 S1_V3_!6465)) (or $x3201 (= S1_V3_!6443 S1_V3_!6475)) (or $x1605 (= S1_V3_!6448 S1_V3_!6443)) (or $x1221 (= S1_V3_!6448 S1_V3_!6465)) (or $x2365 (= S1_V3_!6448 S1_V3_!6475)) (or $x2893 (= S1_V3_!6465 S1_V3_!6475)) (or (not (or (not R_S1_V1) $x1105)) (= S1_V2_!6444 S1_V2_!6466)) (or $x1605 (= S1_V2_!6449 S1_V2_!6444)) (or $x1221 (= S1_V2_!6449 S1_V2_!6466)) (or $x2365 $x3313) (or $x5291 (= S1_V2_!6476 S1_V2_!6444)) (or $x1766 (= S1_V2_!6476 S1_V2_!6466)) (or (not $x2097) (= E1_!6441 E1_!6452)) $x1105 (or (not $x3484) $x1110) (or $x5828 (= S2_V4_!6462 S2_V4_!6457)) (or $x3566 (= S2_V4_!6462 S2_V4_!6473)) (or $x291 (= S2_V4_!6462 S2_V4_!6483)) (or $x3849 (= S2_V4_!6473 S2_V4_!6457)) (or $x2367 (= S2_V4_!6483 S2_V4_!6457)) (or (not $x454) $x2320) (or $x114 (= S1_V5_!6445 S1_V5_!6450)) (or (not (or (not R_S1_V1) (= E1_!6463 E1_!6441))) (= S1_V5_!6467 S1_V5_!6445)) (or $x1564 (= S1_V5_!6467 S1_V5_!6450)) (or $x5291 (= S1_V5_!6477 S1_V5_!6445)) (or $x152 (= S1_V5_!6477 S1_V5_!6450)) (or $x1766 (= S1_V5_!6477 S1_V5_!6467)) (or $x5828 (= S2_V1_!6458 S2_V1_!6453)) (or $x3566 (= S2_V1_!6458 S2_V1_!6469)) (or $x291 (= S2_V1_!6458 S2_V1_!6479)) (or $x3849 (= S2_V1_!6469 S2_V1_!6453)) (or $x2185 (= S2_V1_!6469 S2_V1_!6479)) (or $x2367 (= S2_V1_!6479 S2_V1_!6453)) (or $x114 (= S1_V4_!6446 S1_V4_!6451)) (or $x3201 (= S1_V4_!6446 S1_V4_!6478)) (or (not (or (not R_S1_V1) (= E1_!6463 E1_!6441))) (= S1_V4_!6468 S1_V4_!6446)) (or $x1564 (= S1_V4_!6468 S1_V4_!6451)) (or $x2893 (= S1_V4_!6468 S1_V4_!6478)) (or $x152 (= S1_V4_!6478 S1_V4_!6451)) (or $x5828 (= S2_V2_!6460 S2_V2_!6455)) (or $x3849 (= S2_V2_!6471 S2_V2_!6455)) (or (not $x841) $x7) (or $x2185 (= S2_V2_!6471 S2_V2_!6481)) (or $x2367 $x1777) (or (not $x315) $x4628) (or $x1159 $x957) (or $x5828 $x4897) (or $x3566 $x2042) (or $x291 $x470) (or $x3849 $x3251) (or $x2185 $x929) (not MW_S1_V1) (not MW_S1_V2) (or (not MW_S1_V5) W_S1_V5) (or (not MW_S1_V4) W_S1_V4) (or (not MW_S2_V1) W_S2_V1) (or (not MW_S2_V3) W_S2_V3) (or (not MW_S2_V2) W_S2_V2) (or (not MW_S2_V5) W_S2_V5))))
 (or (not $x821) (not $x1480) (and (= ?x355 ?x5310) $x982 (= ?x902 ?x1970) $x3474 $x2984)))))))))))))))))))))))))))))))))))))))))))))))))))))))))))))))))))))))))))))))))))))))))))))))))))))))))))))
 )
 )
 )
 )
 )
 )
 )
 )
 )
 )
 )
 )
 )
 )
 )
 )
 )
 )
 )
 )
 )
 )
 )
 )
 )
 )
 )
 )
 )
 )
 )
 )
 )
 )
 )
 )
 )
 )
 )
 )
 )
 )
 )
 )
 )
 )
 )
 )
 )
 )
 )
 )
 )
 )
 )
 )
 ))
 (let (($x51 (not (or (and W_S2_V2 R_E1_V2) (and W_S2_V5 R_E1_V5) R_E1_V4))))
 (let (($x3617 (= DISJ_W_S2_R_E1 $x51)))
 (let (($x3345 (and W_S2_V5 R_S2_V5)))
 (let (($x2731 (and W_S2_V2 R_S2_V2)))
 (let (($x3024 (and W_S2_V3 R_S2_V3)))
 (let (($x341 (and W_S2_V1 R_S2_V1)))
 (let (($x1974 (= DISJ_W_S2_R_S2 (not (or $x341 $x3024 $x2731 $x3345 R_S2_V4)))))
 (let (($x3472 (and W_S2_V5 R_S1_V5)))
 (let (($x4996 (and W_S2_V2 R_S1_V2)))
 (let (($x734 (and W_S2_V3 R_S1_V3)))
 (let (($x3623 (and W_S2_V1 R_S1_V1)))
 (let (($x2625 (= DISJ_W_S2_R_S1 (not (or $x3623 $x734 $x4996 $x3472 R_S1_V4)))))
 (let (($x2644 (= DISJ_W_S1_W_S2 (not (or W_S2_V3 (and W_S1_V5 W_S2_V5) W_S1_V4)))))
 (let (($x3283 (not R_E1_V3)))
 (let (($x92 (not (or R_S2_V3 (and W_S1_V5 R_S2_V5) (and W_S1_V4 R_S2_V4)))))
 (let (($x3215 (= DISJ_W_S1_R_S2 $x92)))
 (let (($x3961 (not (or R_S1_V3 (and W_S1_V5 R_S1_V5) (and W_S1_V4 R_S1_V4)))))
 (let (($x1238 (= DISJ_W_S1_R_S1 $x3961)))
 (let (($x2454 (not W_S2_V3)))
 (let (($x2591 (not W_S2_V2)))
 (let (($x5785 (not R_S2_V4)))
 (let (($x605 (not R_S2_V1)))
 (let (($x88 (and $x605 $x5785 $x2591 $x2454 DISJ_W_S2_R_S1)))
 (let (($x5098 (not R_S2_V5)))
 (let (($x5952 (and $x5098 $x5785 $x2454 DISJ_W_S2_R_S1)))
 (let (($x2462 (and $x5785 $x2108 $x2454 DISJ_W_S2_R_S1)))
 (let (($x753 (and $x605 $x5098 $x2591 $x2454 DISJ_W_S2_R_S1)))
 (let (($x758 (and $x5098 $x5060 $x2454 DISJ_W_S2_R_S1)))
 (let (($x864 (not W_S2_V5)))
 (let (($x1951 (and $x605 $x2591 $x864 $x2454 DISJ_W_S2_R_S1)))
 (let (($x4890 (and DISJ_W_S1_W_S2 DISJ_W_S2_R_S1)))
 (let (($x3861 (not R_S2_V3)))
 (let (($x812 (and $x605 $x3861 $x5098 $x2591 DISJ_W_S2_R_S1)))
 (let (($x3358 (and $x605 $x3861 $x5785 $x2591 DISJ_W_S2_R_S1)))
 (let (($x1866 (and $x605 $x5785 $x2591 $x864 DISJ_W_S2_R_S1)))
 (let (($x3305 (and $x605 $x5098 $x5785 $x2591 DISJ_W_S2_R_S1)))
 (let (($x434 (and $x605 $x3861 $x2591 $x864 DISJ_W_S2_R_S1)))
 (let (($x1124 (and (not W_S2_V1) $x2591)))
 (let (($x2588 (and $x3861 $x5785 $x864 DISJ_W_S2_R_S1)))
 (let (($x5423 (and $x5785 $x864 $x2454 DISJ_W_S2_R_S1)))
 (let (($x2822 (and $x3861 $x5060 $x864 DISJ_W_S2_R_S1)))
 (let (($x6049 (and $x2591 DISJ_W_S2_R_S2)))
 (let (($x2485 (or $x258 $x6049 $x3704 $x2822 $x5423 $x2588 $x1124 $x434 $x3305 $x1866 $x3358 $x812 $x4890 $x1951 $x758 $x753 $x2462 $x5952 $x88)))
 (let (($x2726 (not R_S1_V1)))
 (let (($x1780 (and $x2726 DISJ_W_S1_R_S1)))
 (let (($x2039 (and $x2591 DISJ_W_S2_R_S1 DISJ_W_S1_R_S1)))
 (let (($x112 (or $x2039 $x1124 $x1780)))
 (let (($x34 (not W_S1_V2)))
 (let (($x4827 (not W_S1_V1)))
 (let (($x1652 (not R_E1_V1)))
 (let (($x1862 (and DISJ_W_S1_R_E1 $x1652 $x4827 $x34 $x112 $x2485 W_S1_V3 W_S2_V4 $x1238 $x3215 $x3283 $x2644 $x2625 $x1974 $x3617 $x630 $x1887 $x2750)))
 (and $x1862 $x3441 $x2346 $x2056 $x3265))))))))))))))))))))))))))))))))))))))))))))))))))))))))))))))))))
(check-sat)
